; PUSH cw_4 SWAP2 DUP3 SWAP2 PUSH cw_2 SWAP2 => PUSH cw_2 PUSH cw_4 SWAP2 PUSH cw_4 SWAP4
(set-option :produce-proofs true)
; 
(set-info :status unknown)
(declare-fun storage_t ((_ BitVec 256) (_ BitVec 256) (_ BitVec 256) (_ BitVec 256) Int (_ BitVec 256)) (_ BitVec 256))
(declare-fun w_2 () (_ BitVec 256))
(declare-fun w_4 () (_ BitVec 256))
(declare-fun storage_s ((_ BitVec 256) (_ BitVec 256) (_ BitVec 256) (_ BitVec 256) Int (_ BitVec 256)) (_ BitVec 256))
(declare-fun exc_halt_t (Int) Bool)
(declare-fun exc_halt_s (Int) Bool)
(declare-fun sc_t (Int) (_ BitVec 6))
(declare-fun stack_t ((_ BitVec 256) (_ BitVec 256) (_ BitVec 256) (_ BitVec 256) Int (_ BitVec 6)) (_ BitVec 256))
(declare-fun stack_s ((_ BitVec 256) (_ BitVec 256) (_ BitVec 256) (_ BitVec 256) Int (_ BitVec 6)) (_ BitVec 256))
(declare-fun sc_s (Int) (_ BitVec 6))
(declare-fun used_gas_t ((_ BitVec 256) (_ BitVec 256) (_ BitVec 256) (_ BitVec 256) Int) Int)
(declare-fun used_gas_s ((_ BitVec 256) (_ BitVec 256) (_ BitVec 256) (_ BitVec 256) Int) Int)
(assert
 (exists ((x_0 (_ BitVec 256)) (x_1 (_ BitVec 256)) )(let (($x4197 (forall ((w (_ BitVec 256)) )(let ((?x7702 (storage_t x_0 x_1 w_4 w_2 5 w)))
 (let ((?x5095 (storage_s x_0 x_1 w_4 w_2 6 w)))
 (= ?x5095 ?x7702))))
 ))
 (let (($x1885 (exc_halt_t 5)))
 (let (($x772 (exc_halt_s 6)))
 (let (($x11108 (= $x772 $x1885)))
 (let (($x10518 (forall ((n (_ BitVec 6)) )(let ((?x5197 (stack_t x_0 x_1 w_4 w_2 5 n)))
 (let ((?x5689 (stack_s x_0 x_1 w_4 w_2 6 n)))
 (let (($x9148 (= ?x5689 ?x5197)))
 (or $x9148 (bvsle (sc_t 5) n))))))
 ))
 (let ((?x8961 (sc_t 5)))
 (let ((?x926 (sc_s 6)))
 (let (($x5889 (= ?x926 ?x8961)))
 (let ((?x5231 (used_gas_t x_0 x_1 w_4 w_2 0)))
 (let ((?x9531 (used_gas_s x_0 x_1 w_4 w_2 0)))
 (let (($x9584 (= ?x9531 ?x5231)))
 (let (($x180 (forall ((w (_ BitVec 256)) )(let ((?x9063 (storage_t x_0 x_1 w_4 w_2 0 w)))
 (let ((?x3617 (storage_s x_0 x_1 w_4 w_2 0 w)))
 (= ?x3617 ?x9063))))
 ))
 (let (($x56 (exc_halt_t 0)))
 (let (($x57 (exc_halt_s 0)))
 (let (($x58 (= $x57 $x56)))
 (let (($x1859 (forall ((n (_ BitVec 6)) )(let ((?x63 (sc_t 0)))
 (let (($x10756 (bvsle ?x63 n)))
 (let ((?x1871 (stack_t x_0 x_1 w_4 w_2 0 n)))
 (let ((?x8619 (stack_s x_0 x_1 w_4 w_2 0 n)))
 (let (($x2155 (= ?x8619 ?x1871)))
 (or $x2155 $x10756)))))))
 ))
 (let ((?x63 (sc_t 0)))
 (let ((?x72 (sc_s 0)))
 (let (($x73 (= ?x72 ?x63)))
 (let (($x1447 (= $x1885 (or (exc_halt_t 4) (not (bvsle (_ bv0 6) (bvadd (_ bv59 6) (sc_t 4))))))))
 (let (($x4585 (forall ((w (_ BitVec 256)) )(let ((?x1372 (storage_t x_0 x_1 w_4 w_2 4 w)))
 (let ((?x7702 (storage_t x_0 x_1 w_4 w_2 5 w)))
 (= ?x7702 ?x1372))))
 ))
 (let (($x5926 (forall ((n (_ BitVec 6)) )(let ((?x7350 (stack_t x_0 x_1 w_4 w_2 4 n)))
 (let ((?x5197 (stack_t x_0 x_1 w_4 w_2 5 n)))
 (or (bvsle (bvadd (_ bv59 6) (sc_t 4)) n) (= ?x5197 ?x7350)))))
 ))
 (let (($x1646 (= (used_gas_t x_0 x_1 w_4 w_2 5) (+ 3 (used_gas_t x_0 x_1 w_4 w_2 4)))))
 (let (($x11685 (= (stack_t x_0 x_1 w_4 w_2 5 (bvadd (_ bv62 6) ?x8961)) (stack_t x_0 x_1 w_4 w_2 4 (bvadd (_ bv62 6) (sc_t 4))))))
 (let (($x7867 (= (stack_t x_0 x_1 w_4 w_2 5 (bvadd (_ bv61 6) ?x8961)) (stack_t x_0 x_1 w_4 w_2 4 (bvadd (_ bv61 6) (sc_t 4))))))
 (let (($x1412 (= (stack_t x_0 x_1 w_4 w_2 5 (bvadd (_ bv60 6) ?x8961)) (stack_t x_0 x_1 w_4 w_2 4 (bvadd (_ bv60 6) (sc_t 4))))))
 (let (($x9793 (= (stack_t x_0 x_1 w_4 w_2 5 (bvadd (_ bv59 6) ?x8961)) (stack_t x_0 x_1 w_4 w_2 4 (bvadd (_ bv63 6) (sc_t 4))))))
 (let (($x11070 (= (stack_t x_0 x_1 w_4 w_2 5 (bvadd (_ bv63 6) ?x8961)) (stack_t x_0 x_1 w_4 w_2 4 (bvadd (_ bv59 6) (sc_t 4))))))
 (let (($x3614 (exc_halt_t 3)))
 (let (($x803 (or $x3614 (not (= ((_ extract 6 6) (bvadd (_ bv1 7) (concat (_ bv0 1) (sc_t 3)))) (_ bv0 1))))))
 (let (($x7854 (exc_halt_t 4)))
 (let (($x4431 (forall ((w (_ BitVec 256)) )(let ((?x2947 (storage_t x_0 x_1 w_4 w_2 3 w)))
 (let ((?x1372 (storage_t x_0 x_1 w_4 w_2 4 w)))
 (= ?x1372 ?x2947))))
 ))
 (let (($x9791 (forall ((n (_ BitVec 6)) )(let ((?x11304 (sc_t 3)))
 (let (($x2198 (bvsle ?x11304 n)))
 (let ((?x2151 (stack_t x_0 x_1 w_4 w_2 3 n)))
 (let ((?x7350 (stack_t x_0 x_1 w_4 w_2 4 n)))
 (or (= ?x7350 ?x2151) $x2198))))))
 ))
 (let ((?x5459 (used_gas_t x_0 x_1 w_4 w_2 4)))
 (let (($x5967 (= $x3614 (or (exc_halt_t 2) (not (bvsle (_ bv0 6) (bvadd (_ bv61 6) (sc_t 2))))))))
 (let (($x9750 (forall ((w (_ BitVec 256)) )(let ((?x11679 (storage_t x_0 x_1 w_4 w_2 2 w)))
 (let ((?x2947 (storage_t x_0 x_1 w_4 w_2 3 w)))
 (= ?x2947 ?x11679))))
 ))
 (let (($x5036 (forall ((n (_ BitVec 6)) )(let ((?x10626 (stack_t x_0 x_1 w_4 w_2 2 n)))
 (let ((?x2151 (stack_t x_0 x_1 w_4 w_2 3 n)))
 (or (= ?x2151 ?x10626) (bvsle (bvadd (_ bv61 6) (sc_t 2)) n)))))
 ))
 (let ((?x2714 (sc_t 2)))
 (let ((?x11304 (sc_t 3)))
 (let (($x9044 (= ?x11304 ?x2714)))
 (let ((?x9362 (used_gas_t x_0 x_1 w_4 w_2 3)))
 (let (($x588 (= (stack_t x_0 x_1 w_4 w_2 3 (bvadd (_ bv62 6) ?x11304)) (stack_t x_0 x_1 w_4 w_2 2 (bvadd (_ bv62 6) ?x2714)))))
 (let (($x3758 (= (stack_t x_0 x_1 w_4 w_2 3 (bvadd (_ bv61 6) ?x11304)) (stack_t x_0 x_1 w_4 w_2 2 (bvadd (_ bv63 6) ?x2714)))))
 (let (($x6332 (= (stack_t x_0 x_1 w_4 w_2 3 (bvadd (_ bv63 6) ?x11304)) (stack_t x_0 x_1 w_4 w_2 2 (bvadd (_ bv61 6) ?x2714)))))
 (let (($x8377 (exc_halt_t 1)))
 (let (($x6611 (or $x8377 (not (= ((_ extract 6 6) (bvadd (_ bv1 7) (concat (_ bv0 1) (sc_t 1)))) (_ bv0 1))))))
 (let (($x4500 (exc_halt_t 2)))
 (let (($x1605 (= $x4500 $x6611)))
 (let (($x520 (forall ((w (_ BitVec 256)) )(let ((?x10665 (storage_t x_0 x_1 w_4 w_2 1 w)))
 (let ((?x11679 (storage_t x_0 x_1 w_4 w_2 2 w)))
 (= ?x11679 ?x10665))))
 ))
 (let (($x1806 (forall ((n (_ BitVec 6)) )(let ((?x7154 (sc_t 1)))
 (let (($x1943 (bvsle ?x7154 n)))
 (let ((?x8249 (stack_t x_0 x_1 w_4 w_2 1 n)))
 (let ((?x10626 (stack_t x_0 x_1 w_4 w_2 2 n)))
 (or (= ?x10626 ?x8249) $x1943))))))
 ))
 (let (($x10940 (= ?x2714 (bvadd (_ bv1 6) (sc_t 1)))))
 (let ((?x6177 (used_gas_t x_0 x_1 w_4 w_2 2)))
 (let (($x8120 (= $x8377 (or $x56 (not (= ((_ extract 6 6) (bvadd (_ bv1 7) (concat (_ bv0 1) ?x63))) (_ bv0 1)))))))
 (let (($x6416 (forall ((w (_ BitVec 256)) )(let ((?x9063 (storage_t x_0 x_1 w_4 w_2 0 w)))
 (let ((?x10665 (storage_t x_0 x_1 w_4 w_2 1 w)))
 (= ?x10665 ?x9063))))
 ))
 (let (($x1957 (forall ((n (_ BitVec 6)) )(let ((?x63 (sc_t 0)))
 (let (($x10756 (bvsle ?x63 n)))
 (let ((?x1871 (stack_t x_0 x_1 w_4 w_2 0 n)))
 (let ((?x8249 (stack_t x_0 x_1 w_4 w_2 1 n)))
 (or (= ?x8249 ?x1871) $x10756))))))
 ))
 (let ((?x7154 (sc_t 1)))
 (let (($x3866 (= ?x7154 (bvadd (_ bv1 6) ?x63))))
 (let (($x11575 (= $x772 (or (exc_halt_s 5) (not (bvsle (_ bv0 6) (bvadd (_ bv61 6) (sc_s 5))))))))
 (let (($x4530 (forall ((w (_ BitVec 256)) )(let ((?x7469 (storage_s x_0 x_1 w_4 w_2 5 w)))
 (let ((?x5095 (storage_s x_0 x_1 w_4 w_2 6 w)))
 (= ?x5095 ?x7469))))
 ))
 (let (($x4856 (forall ((n (_ BitVec 6)) )(let ((?x1163 (stack_s x_0 x_1 w_4 w_2 5 n)))
 (let ((?x5689 (stack_s x_0 x_1 w_4 w_2 6 n)))
 (or (= ?x5689 ?x1163) (bvsle (bvadd (_ bv61 6) (sc_s 5)) n)))))
 ))
 (let ((?x4319 (sc_s 5)))
 (let (($x4783 (= ?x926 ?x4319)))
 (let (($x2992 (= (used_gas_s x_0 x_1 w_4 w_2 6) (+ 3 (used_gas_s x_0 x_1 w_4 w_2 5)))))
 (let (($x2082 (= (stack_s x_0 x_1 w_4 w_2 6 (bvadd (_ bv62 6) ?x926)) (stack_s x_0 x_1 w_4 w_2 5 (bvadd (_ bv62 6) ?x4319)))))
 (let (($x7602 (= (stack_s x_0 x_1 w_4 w_2 6 (bvadd (_ bv61 6) ?x926)) (stack_s x_0 x_1 w_4 w_2 5 (bvadd (_ bv63 6) ?x4319)))))
 (let (($x38 (= (stack_s x_0 x_1 w_4 w_2 6 (bvadd (_ bv63 6) ?x926)) (stack_s x_0 x_1 w_4 w_2 5 (bvadd (_ bv61 6) ?x4319)))))
 (let (($x7172 (exc_halt_s 4)))
 (let (($x9629 (or $x7172 (not (= ((_ extract 6 6) (bvadd (_ bv1 7) (concat (_ bv0 1) (sc_s 4)))) (_ bv0 1))))))
 (let (($x11317 (exc_halt_s 5)))
 (let (($x8321 (= $x11317 $x9629)))
 (let (($x2979 (forall ((w (_ BitVec 256)) )(let ((?x10971 (storage_s x_0 x_1 w_4 w_2 4 w)))
 (let ((?x7469 (storage_s x_0 x_1 w_4 w_2 5 w)))
 (= ?x7469 ?x10971))))
 ))
 (let (($x7334 (forall ((n (_ BitVec 6)) )(let ((?x9768 (stack_s x_0 x_1 w_4 w_2 4 n)))
 (let ((?x1163 (stack_s x_0 x_1 w_4 w_2 5 n)))
 (let ((?x4305 (sc_s 4)))
 (let (($x6840 (bvsle ?x4305 n)))
 (or $x6840 (= ?x1163 ?x9768)))))))
 ))
 (let (($x10371 (= ?x4319 (bvadd (_ bv1 6) (sc_s 4)))))
 (let ((?x6093 (used_gas_s x_0 x_1 w_4 w_2 5)))
 (let (($x4669 (= $x7172 (or (exc_halt_s 3) (not (bvsle (_ bv0 6) (bvadd (_ bv61 6) (sc_s 3))))))))
 (let (($x6781 (forall ((w (_ BitVec 256)) )(let ((?x10746 (storage_s x_0 x_1 w_4 w_2 3 w)))
 (let ((?x10971 (storage_s x_0 x_1 w_4 w_2 4 w)))
 (= ?x10971 ?x10746))))
 ))
 (let (($x7598 (forall ((n (_ BitVec 6)) )(let ((?x10308 (stack_s x_0 x_1 w_4 w_2 3 n)))
 (let ((?x9768 (stack_s x_0 x_1 w_4 w_2 4 n)))
 (or (bvsle (bvadd (_ bv61 6) (sc_s 3)) n) (= ?x9768 ?x10308)))))
 ))
 (let ((?x275 (sc_s 3)))
 (let ((?x4305 (sc_s 4)))
 (let (($x10832 (= ?x4305 ?x275)))
 (let ((?x2847 (used_gas_s x_0 x_1 w_4 w_2 4)))
 (let (($x9037 (= (stack_s x_0 x_1 w_4 w_2 4 (bvadd (_ bv62 6) ?x4305)) (stack_s x_0 x_1 w_4 w_2 3 (bvadd (_ bv62 6) ?x275)))))
 (let ((?x397 (bvadd (_ bv63 6) ?x275)))
 (let ((?x4123 (stack_s x_0 x_1 w_4 w_2 3 ?x397)))
 (let (($x818 (= (stack_s x_0 x_1 w_4 w_2 4 (bvadd (_ bv63 6) ?x4305)) (stack_s x_0 x_1 w_4 w_2 3 (bvadd (_ bv61 6) ?x275)))))
 (let (($x10930 (not (bvsle (_ bv0 6) (bvadd (_ bv61 6) (sc_s 2))))))
 (let (($x7298 (not (= ((_ extract 6 6) (bvadd (_ bv1 7) (concat (_ bv0 1) (sc_s 2)))) (_ bv0 1)))))
 (let (($x247 (exc_halt_s 2)))
 (let (($x292 (exc_halt_s 3)))
 (let (($x7157 (forall ((w (_ BitVec 256)) )(let ((?x1102 (storage_s x_0 x_1 w_4 w_2 2 w)))
 (let ((?x10746 (storage_s x_0 x_1 w_4 w_2 3 w)))
 (= ?x10746 ?x1102))))
 ))
 (let (($x1779 (forall ((n (_ BitVec 6)) )(let ((?x6493 (stack_s x_0 x_1 w_4 w_2 2 n)))
 (let ((?x10308 (stack_s x_0 x_1 w_4 w_2 3 n)))
 (let ((?x218 (sc_s 2)))
 (let ((?x990 (bvadd (_ bv61 6) ?x218)))
 (let (($x7557 (bvsle ?x990 n)))
 (or $x7557 (= ?x10308 ?x6493))))))))
 ))
 (let (($x7996 (= ?x275 (bvadd (_ bv1 6) (sc_s 2)))))
 (let ((?x10163 (used_gas_s x_0 x_1 w_4 w_2 3)))
 (let ((?x218 (sc_s 2)))
 (let ((?x2958 (bvadd (_ bv63 6) ?x218)))
 (let ((?x8752 (stack_s x_0 x_1 w_4 w_2 2 ?x2958)))
 (let ((?x1134 (bvadd (_ bv62 6) ?x218)))
 (let ((?x455 (stack_s x_0 x_1 w_4 w_2 2 ?x1134)))
 (let ((?x990 (bvadd (_ bv61 6) ?x218)))
 (let ((?x10248 (stack_s x_0 x_1 w_4 w_2 2 ?x990)))
 (let (($x4061 (= $x247 (or (exc_halt_s 1) (not (bvsle (_ bv0 6) (bvadd (_ bv61 6) (sc_s 1))))))))
 (let (($x8527 (forall ((w (_ BitVec 256)) )(let ((?x6109 (storage_s x_0 x_1 w_4 w_2 1 w)))
 (let ((?x1102 (storage_s x_0 x_1 w_4 w_2 2 w)))
 (= ?x1102 ?x6109))))
 ))
 (let (($x4662 (forall ((n (_ BitVec 6)) )(let ((?x3313 (stack_s x_0 x_1 w_4 w_2 1 n)))
 (let ((?x6493 (stack_s x_0 x_1 w_4 w_2 2 n)))
 (or (bvsle (bvadd (_ bv61 6) (sc_s 1)) n) (= ?x6493 ?x3313)))))
 ))
 (let ((?x154 (sc_s 1)))
 (let (($x2831 (= ?x218 ?x154)))
 (let ((?x4079 (used_gas_s x_0 x_1 w_4 w_2 2)))
 (let (($x189 (exc_halt_s 1)))
 (let (($x9742 (= $x189 (or $x57 (not (= ((_ extract 6 6) (bvadd (_ bv1 7) (concat (_ bv0 1) ?x72))) (_ bv0 1)))))))
 (let (($x6669 (forall ((w (_ BitVec 256)) )(let ((?x3617 (storage_s x_0 x_1 w_4 w_2 0 w)))
 (let ((?x6109 (storage_s x_0 x_1 w_4 w_2 1 w)))
 (= ?x6109 ?x3617))))
 ))
 (let (($x7091 (forall ((n (_ BitVec 6)) )(let ((?x72 (sc_s 0)))
 (let (($x8583 (bvsle ?x72 n)))
 (let ((?x8619 (stack_s x_0 x_1 w_4 w_2 0 n)))
 (let ((?x3313 (stack_s x_0 x_1 w_4 w_2 1 n)))
 (or (= ?x3313 ?x8619) $x8583))))))
 ))
 (let (($x4777 (= ?x154 (bvadd (_ bv1 6) ?x72))))
 (let (($x5274 (forall ((w (_ BitVec 256)) )(let ((?x3617 (storage_s x_0 x_1 w_4 w_2 0 w)))
 (= ?x3617 (_ bv0 256))))
 ))
 (let (($x7153 (= ?x9531 0)))
 (let (($x11625 (not $x57)))
 (let (($x11791 (= (stack_s x_0 x_1 w_4 w_2 0 (_ bv1 6)) x_1)))
 (let (($x4842 (= (stack_s x_0 x_1 w_4 w_2 0 (_ bv0 6)) x_0)))
 (let (($x11128 (= ?x72 (_ bv2 6))))
 (and $x11128 $x4842 $x11791 $x11625 $x7153 $x5274 (= (stack_s x_0 x_1 w_4 w_2 1 ?x72) w_4) (= (used_gas_s x_0 x_1 w_4 w_2 1) (+ 3 ?x9531)) $x4777 $x7091 $x6669 $x9742 (= ?x8752 (stack_s x_0 x_1 w_4 w_2 1 (bvadd (_ bv61 6) ?x154))) (= ?x10248 (stack_s x_0 x_1 w_4 w_2 1 (bvadd (_ bv63 6) ?x154))) (= ?x455 (stack_s x_0 x_1 w_4 w_2 1 (bvadd (_ bv62 6) ?x154))) (= ?x4079 (+ 3 (used_gas_s x_0 x_1 w_4 w_2 1))) $x2831 $x4662 $x8527 $x4061 (= ?x4123 ?x10248) (= (stack_s x_0 x_1 w_4 w_2 3 ?x990) ?x10248) (= (stack_s x_0 x_1 w_4 w_2 3 ?x1134) ?x455) (= (stack_s x_0 x_1 w_4 w_2 3 ?x2958) ?x8752) (= ?x10163 (+ 3 ?x4079)) $x7996 $x1779 $x7157 (= $x292 (or $x247 $x7298 $x10930)) $x818 (= (stack_s x_0 x_1 w_4 w_2 4 (bvadd (_ bv61 6) ?x4305)) ?x4123) $x9037 (= ?x2847 (+ 3 ?x10163)) $x10832 $x7598 $x6781 $x4669 (= (stack_s x_0 x_1 w_4 w_2 5 ?x4305) w_2) (= ?x6093 (+ 3 ?x2847)) $x10371 $x7334 $x2979 $x8321 $x38 $x7602 $x2082 $x2992 $x4783 $x4856 $x4530 $x11575 (= (stack_t x_0 x_1 w_4 w_2 1 ?x63) w_2) (= (used_gas_t x_0 x_1 w_4 w_2 1) (+ 3 ?x5231)) $x3866 $x1957 $x6416 $x8120 (= (stack_t x_0 x_1 w_4 w_2 2 ?x7154) w_4) (= ?x6177 (+ 3 (used_gas_t x_0 x_1 w_4 w_2 1))) $x10940 $x1806 $x520 $x1605 $x6332 $x3758 $x588 (= ?x9362 (+ 3 ?x6177)) $x9044 $x5036 $x9750 $x5967 (= (stack_t x_0 x_1 w_4 w_2 4 ?x11304) w_4) (= ?x5459 (+ 3 ?x9362)) (= (sc_t 4) (bvadd (_ bv1 6) ?x11304)) $x9791 $x4431 (= $x7854 $x803) $x11070 $x9793 $x1412 $x7867 $x11685 $x1646 (= ?x8961 (sc_t 4)) $x5926 $x4585 $x1447 $x73 $x1859 $x58 $x180 $x9584 (not (and $x5889 $x10518 $x11108 $x4197)))))))))))))))))))))))))))))))))))))))))))))))))))))))))))))))))))))))))))))))))))))))))))))))))))))))))))))))))))))))))
 )
(check-sat)
(get-proof)
